************************************************************************
file with basedata            : j60_24.bas
initial value random generator: 2211
************************************************************************
projects                      :  1
jobs (incl. supersource/sink ):  62
horizon                       :  326
RESOURCES
  - renewable                 :  4   R
  - nonrenewable              :  0   N
  - doubly constrained        :  0   D
************************************************************************
PROJECT INFORMATION:
pronr.  #jobs rel.date duedate tardcost  MPM-Time
    1     60      0       64       38       64
************************************************************************
PRECEDENCE RELATIONS:
jobnr.    #modes  #successors   successors
   1        1          3           2   3   4
   2        1          3           6   7  11
   3        1          1          44
   4        1          3           5   9  21
   5        1          3          10  12  14
   6        1          3           8  15  58
   7        1          2          26  47
   8        1          1          56
   9        1          2          18  33
  10        1          2          16  51
  11        1          1          48
  12        1          2          13  46
  13        1          3          17  19  20
  14        1          3          15  25  32
  15        1          1          23
  16        1          1          42
  17        1          1          47
  18        1          3          22  35  38
  19        1          1          40
  20        1          1          23
  21        1          2          29  30
  22        1          1          37
  23        1          2          24  36
  24        1          2          31  60
  25        1          1          50
  26        1          1          27
  27        1          2          28  31
  28        1          1          42
  29        1          1          45
  30        1          1          53
  31        1          2          34  39
  32        1          1          41
  33        1          2          50  55
  34        1          1          52
  35        1          1          41
  36        1          2          37  59
  37        1          1          39
  38        1          1          49
  39        1          1          61
  40        1          3          45  49  56
  41        1          2          52  54
  42        1          1          43
  43        1          1          50
  44        1          2          48  52
  45        1          1          53
  46        1          1          56
  47        1          1          57
  48        1          1          61
  49        1          1          58
  50        1          1          54
  51        1          1          54
  52        1          1          59
  53        1          1          57
  54        1          2          57  59
  55        1          1          60
  56        1          1          61
  57        1          1          58
  58        1          1          60
  59        1          1          62
  60        1          1          62
  61        1          1          62
  62        1          0        
************************************************************************
REQUESTS/DURATIONS:
jobnr. mode duration  R 1  R 2  R 3  R 4
------------------------------------------------------------------------
  1      1     0       0    0    0    0
  2      1    10      10    0    0    3
  3      1     7       5    0    0    0
  4      1     5       6    2    8   10
  5      1     5       5    1    3    0
  6      1     2       0    0    5    9
  7      1     1       0    0    5    0
  8      1     8       0    0    5    1
  9      1     5       0    0    8    0
 10      1     2       3    2    0    0
 11      1     1       0    0   10    7
 12      1     9       6    2    0    0
 13      1     4      10    0    0    0
 14      1     3       9    0    7    2
 15      1    10      10    0    0    4
 16      1     8      10    0    0    3
 17      1     5       0    0    7    5
 18      1     8       0    0   10    0
 19      1     5       0    4    0    8
 20      1     7       9    5    8    7
 21      1     8       2    0    3    3
 22      1     1       1    0    1    3
 23      1    10       1   10    0    7
 24      1     3       0    0    0    7
 25      1     9       0    9    0    7
 26      1     2       0    0    0    3
 27      1     8       0    0    0    5
 28      1    10       4    4    0    0
 29      1     6       0    0    2    0
 30      1     4       0    0    8    0
 31      1     2       4    1    9    5
 32      1     7       8    0    4    4
 33      1     1       5    1    0   10
 34      1     4       5    9    0    0
 35      1     5       0    1    0    0
 36      1     9       0    3    2    0
 37      1     8       3    0    0    0
 38      1    10       6    2    3    0
 39      1     2       8    2   10    0
 40      1     2       0    4    1    7
 41      1    10       0    9    0    3
 42      1     9       4    0    0    0
 43      1     7       6    2    0    7
 44      1     3       0    0   10    0
 45      1     9       5    9    0    6
 46      1     5       1    0    2    0
 47      1     6       0    4    0   10
 48      1     5       7    0    0    0
 49      1     6       0    9    0   10
 50      1     3       7    0    0    0
 51      1    10       3    0    7    0
 52      1     1       8    5    0    0
 53      1     2       3    0   10    0
 54      1     5       0    0    2    7
 55      1     5       0    0    0    7
 56      1     8       1    5    0    0
 57      1     4       8    0   10    3
 58      1     4       0    0    0    6
 59      1     2       0    6    4    2
 60      1     1       4    7    0    0
 61      1     5       0    0    7    0
 62      1     0       0    0    0    0
************************************************************************
RESOURCEAVAILABILITIES:
  R 1  R 2  R 3  R 4
   48   50   40   36
************************************************************************
